NAME: random-24-11528
TYPE: TSP
COMMENT: size=24 seed=11528
DIMENSION: 50
EDGE_WEIGHT_TYPE: EUC_2D
NODE_COORD_SECTION
+0 96 620
-0 96 620
+1 813 588
-1 558 809
+2 334 927
-2 933 531
+3 163 670
-3 584 2
+4 817 976
-4 780 946
+5 620 933
-5 869 174
+6 842 746
-6 452 698
+7 483 179
-7 598 586
+8 161 67
-8 885 623
+9 341 479
-9 384 971
+10 567 894
-10 994 860
+11 110 821
-11 577 942
+12 911 86
-12 636 755
+13 397 89
-13 477 127
+14 96 332
-14 633 178
+15 300 696
-15 575 653
+16 950 366
-16 860 309
+17 909 674
-17 860 52
+18 762 366
-18 138 754
+19 255 689
-19 34 166
+20 399 717
-20 358 936
+21 153 681
-21 351 98
+22 41 123
-22 128 387
+23 878 397
-23 398 304
+24 798 36
-24 976 196
PRECEDENCE_SECTION
+0 -0
+1 -1
+2 -2
+3 -3
+4 -4
+5 -5
+6 -6
+7 -7
+8 -8
+9 -9
+10 -10
+11 -11
+12 -12
+13 -13
+14 -14
+15 -15
+16 -16
+17 -17
+18 -18
+19 -19
+20 -20
+21 -21
+22 -22
+23 -23
+24 -24
EOF
